
Gurobi 8.1.1 (win64) logging started 11/28/19 00:00:35

Changed value of parameter LogFile to logs/drand/qp/drand-10-110-0.log
   Prev: gurobi.log  Default: 
Changed value of parameter LogToConsole to 0
   Prev: 1  Min: 0  Max: 1  Default: 1
Changed value of parameter TimeLimit to 3600.0
   Prev: 1e+100  Min: 0.0  Max: 1e+100  Default: 1e+100
Optimize a model with 1 rows, 565 columns and 1 nonzeros
Model has 10 quadratic constraints
Variable types: 0 continuous, 565 integer (565 binary)
Coefficient statistics:
  Matrix range     [1e+00, 1e+00]
  QMatrix range    [1e+00, 1e+00]
  Objective range  [1e+00, 1e+00]
  Bounds range     [1e+00, 1e+00]
  RHS range        [1e+00, 1e+00]
  QRHS range       [1e+00, 1e+00]
Found heuristic solution: objective 565.0000000
Presolve removed 1 rows and 1 columns
Presolve time: 0.01s
Presolved: 0 rows, 564 columns, 0 nonzeros
Variable types: 0 continuous, 564 integer (564 binary)

Root relaxation: objective 1.000000e+00, 0 iterations, 0.00 seconds

    Nodes    |    Current Node    |     Objective Bounds      |     Work
 Expl Unexpl |  Obj  Depth IntInf | Incumbent    BestBd   Gap | It/Node Time

     0     0    2.00000    0    2  565.00000    2.00000   100%     -    0s
H    0     0                      11.0000000    2.00000  81.8%     -    0s
     0     0    2.00000    0    2   11.00000    2.00000  81.8%     -    0s
     0     2    2.00000    0    2   11.00000    2.00000  81.8%     -    0s
H   29    16                      10.0000000    2.00000  80.0%   1.3    0s
H   91    43                       9.0000000    2.00000  77.8%   1.3    0s
   341   150    2.00000   81    -    9.00000    2.00000  77.8%   1.3    5s
   489   231    3.00000  117    2    9.00000    2.00000  77.8%   1.3   10s
   623   286    2.00000  151    2    9.00000    2.00000  77.8%   1.3   15s
   752   350    2.00000  184    2    9.00000    2.00000  77.8%   1.3   21s
   849   402    2.00000  208    2    9.00000    2.00000  77.8%   1.3   26s
   938   450    2.00000  230    -    9.00000    2.00000  77.8%   1.3   31s
  1006   478    2.00000  247    -    9.00000    2.00000  77.8%   1.3   35s
  1126   533    2.00000  276    -    9.00000    2.00000  77.8%   1.3   41s
  1190   570    2.00000  293    -    9.00000    2.00000  77.8%   1.3   46s
  1288   611    2.00000  316    2    9.00000    2.00000  77.8%   1.3   51s
  1368   655    2.00000  336    2    9.00000    2.00000  77.8%   1.3   55s
  1448   692    2.00000  356    2    9.00000    2.00000  77.8%   1.3   61s
  1530   669    3.00000  369    -    9.00000    2.00000  77.8%   1.3   66s
  1581   659    4.00000  370    2    9.00000    2.00000  77.8%   1.3   71s
  1674   770    7.50000  383    1    9.00000    2.00000  77.8%   1.3   76s
  1764   828    7.50000  427    1    9.00000    2.00000  77.8%   1.3   82s
  1828   819    8.00000  441    -    9.00000    2.00000  77.8%   1.3   86s
  1882   828    8.00000  441    -    9.00000    2.00000  77.8%   1.3   90s
  1952   860    3.00000   65    2    9.00000    2.00000  77.8%   1.3   97s
  2004   859    8.00000  441    -    9.00000    2.00000  77.8%   1.3  102s
  2050   844    8.00000  441    -    9.00000    2.00000  77.8%   1.3  107s
  2092   844    8.00000  441    -    9.00000    2.00000  77.8%   1.3  112s
  2134   864    8.00000  441    -    9.00000    2.00000  77.8%   1.3  119s
  2194   862    8.00000  441    -    9.00000    3.00000  66.7%   1.3  129s
  2302   863    4.00000  272    2    9.00000    3.00000  66.7%   1.3  140s
  2397   895    3.00000  293    2    9.00000    3.00000  66.7%   1.3  150s
  2480   921    3.00000  294    2    9.00000    3.00000  66.7%   1.3  162s
  2626  1009    3.00000  358    2    9.00000    3.00000  66.7%   1.3  179s
  2835  1111    4.00000   92    2    9.00000    3.00000  66.7%   1.3  192s
  2954  1151    8.00000  397    -    9.00000    3.00000  66.7%   1.3  209s
  2996  1180    3.00000  139    -    9.00000    3.00000  66.7%   1.3  210s
  3088  1181     cutoff  416         9.00000    3.00000  66.7%   1.3  226s
  3193  1222    7.00000  416    -    9.00000    3.00000  66.7%   1.3  244s
  3303  1248    7.00000  416    -    9.00000    3.00000  66.7%   1.3  263s
  3431  1284    7.00000  416    -    9.00000    3.00000  66.7%   1.3  284s
  3473  1311    3.00000  164    -    9.00000    3.00000  66.7%   1.3  285s
  3554  1330    7.00000  416    -    9.00000    3.00000  66.7%   1.3  305s
  3687  1386    7.00000  416    -    9.00000    3.00000  66.7%   1.3  324s
  3781  1421    7.00000  416    -    9.00000    3.00000  66.7%   1.3  344s
  3858  1463    4.00000  237    -    9.00000    3.00000  66.7%   1.3  368s
  3994  1501    5.00000  244    -    9.00000    3.00000  66.7%   1.3  393s
  4151  1548    4.00000  297    2    9.00000    3.00000  66.7%   1.3  418s
  4338  1660    3.00000  316    2    9.00000    3.00000  66.7%   1.3  446s
  4496  1709    4.16667  366    3    9.00000    3.00000  66.7%   1.3  475s
  4642  1793    6.00000  377    -    9.00000    3.00000  66.7%   1.3  505s
  4847  1885    3.00000  341    2    9.00000    3.00000  66.7%   1.3  535s
  4987  1940    8.00000  422    -    9.00000    3.00000  66.7%   1.3  567s
  5134  2010    8.00000  422    -    9.00000    3.00000  66.7%   1.3  601s
  5320  2091    8.00000  422    -    9.00000    3.00000  66.7%   1.3  633s
  5454  2148    8.00000  422    -    9.00000    3.00000  66.7%   1.3  667s
  5581  2204    8.00000  422    -    9.00000    3.00000  66.7%   1.3  698s
  5725  2277    8.00000  422    -    9.00000    3.00000  66.7%   1.3  730s
  5923  2411    8.00000  422    -    9.00000    3.00000  66.7%   1.3  762s
  6074  2597    3.00000  294    2    9.00000    3.00000  66.7%   1.3  965s
  6076  2598    4.00000  208 5344    9.00000    3.00000  66.7%   1.3 1099s
  6078  2601    3.00000  306    2    9.00000    3.00000  66.7%   7.6 1303s
  6080  2602    4.00000  243 5336    9.00000    3.00000  66.7%   7.6 1493s
  6081  2603    4.00000   93 3120    9.00000    3.00000  66.7%   7.6 1655s
  6082  2604    3.00000   95 3121    9.00000    3.00000  66.7%   7.6 1681s
H 6082  2473                       8.0000000    3.00000  62.5%   7.6 1882s
  6083  2473    4.00000  146 3976    8.00000    3.00000  62.5%   7.6 1920s
  6084  2474    4.00000  145 4170    8.00000    3.00000  62.5%   7.6 2057s
  6085  2475    4.00000   25 4073    8.00000    3.00000  62.5%   7.6 2104s
  6086  2475    3.00000  284 4884    8.00000    3.00000  62.5%   7.6 2235s
  6087  2476    5.00000  298 4928    8.00000    3.00000  62.5%   7.6 2279s
  6088  2477    3.00000  119 4101    8.00000    3.00000  62.5%   7.6 2494s
  6089  2477    4.00000  235 4041    8.00000    3.00000  62.5%   7.6 2554s
  6090  2478    4.00000  272 3683    8.00000    3.00000  62.5%   7.6 2634s
  6091  2479    4.00000    7 3684    8.00000    3.00000  62.5%   7.6 2652s
  6092  2479    5.00000  370 3696    8.00000    3.00000  62.5%   7.6 2836s
  6093  2480    4.00000  329 3677    8.00000    3.00000  62.5%   7.6 2871s
  6094  2481    4.00000  205 4657    8.00000    3.00000  62.5%   7.6 2986s
  6095  2481    5.00000  273 4647    8.00000    3.00000  62.5%   7.6 3031s
  6096  2482    3.00000  173 4657    8.00000    3.00000  62.5%   7.6 3243s
  6097  2483    4.00000   18 4573    8.00000    3.00000  62.5%   7.6 3314s
  6098  2483    5.00000  365 3997    8.00000    3.00000  62.5%   7.6 3422s
  6099  2484    4.50000  380 3997    8.00000    3.00000  62.5%   7.6 3443s

Cutting planes:
  Gomory: 2
  Zero half: 41

Explored 6099 nodes (238273 simplex iterations) in 3601.04 seconds
Thread count was 4 (of 4 available processors)

Solution count 5: 8 9 10 ... 565

Time limit reached
Best objective 8.000000000000e+00, best bound 3.000000000000e+00, gap 62.5000%
Warning: Q constraint 0 doesn't have a name
